db/data/132372853031202118232529521347539922773.z3.out
sat
-------------------
1.856060093
